n_potions = 66;
alchemy = [2, 3, 4, 1, 3, 5, 5, 2, 1, 4, 5, 2, 2, 4, 2, 4, 2, 1, 2, 4, 1, 5, 1, 3, 2, 5, 3, 4, 4, 5, 3, 3, 4, 3, 4, 5, 3, 2, 1, 5, 1, 5, 3, 3, 4, 5, 3, 4, 3, 2, 3, 5, 1, 1, 3, 2, 5, 3, 2, 5, 2, 1, 1, 2, 4, 4];
n_days = 12;
min_potions = 5;
max_potions = 7;
min_alchemists = 5;
max_alchemists = 35;
prereqs = [|7,1
|8,2
|10,5
|11,5
|11,6
|12,7
|13,8
|16,9
|17,10
|18,10
|18,11
|19,8
|19,11
|20,9
|21,10
|23,17
|23,18
|24,19
|26,13
|30,9
|32,9
|33,27
|34,17
|35,17
|35,18
|37,20
|37,30
|37,35
|38,33
|39,35
|41,9
|41,17
|44,16
|45,38
|48,34
|48,35
|50,43
|51,33
|53,47
|54,50
|55,43
|55,38
|56,51
|57,39
|57,34
|59,55
|61,48
|61,55
|62,31
|65,59
|];
